c CNF file corresponding to a (partial) station packing problem.
p cnf 5888 229
1 2 3 4 5 6 7 8 9 10 11 12 13 14 0
-1 -2 0
-1 -3 0
-1 -4 0
-1 -5 0
-1 -6 0
-1 -7 0
-1 -8 0
-1 -9 0
-1 -10 0
-1 -11 0
-1 -12 0
-1 -13 0
-1 -14 0
-2 -3 0
-2 -4 0
-2 -5 0
-2 -6 0
-2 -7 0
-2 -8 0
-2 -9 0
-2 -10 0
-2 -11 0
-2 -12 0
-2 -13 0
-2 -14 0
-3 -4 0
-3 -5 0
-3 -6 0
-3 -7 0
-3 -8 0
-3 -9 0
-3 -10 0
-3 -11 0
-3 -12 0
-3 -13 0
-3 -14 0
-4 -5 0
-4 -6 0
-4 -7 0
-4 -8 0
-4 -9 0
-4 -10 0
-4 -11 0
-4 -12 0
-4 -13 0
-4 -14 0
-5 -6 0
-5 -7 0
-5 -8 0
-5 -9 0
-5 -10 0
-5 -11 0
-5 -12 0
-5 -13 0
-5 -14 0
-6 -7 0
-6 -8 0
-6 -9 0
-6 -10 0
-6 -11 0
-6 -12 0
-6 -13 0
-6 -14 0
-7 -8 0
-7 -9 0
-7 -10 0
-7 -11 0
-7 -12 0
-7 -13 0
-7 -14 0
-8 -9 0
-8 -10 0
-8 -11 0
-8 -12 0
-8 -13 0
-8 -14 0
-9 -10 0
-9 -11 0
-9 -12 0
-9 -13 0
-9 -14 0
-10 -11 0
-10 -12 0
-10 -13 0
-10 -14 0
-11 -12 0
-11 -13 0
-11 -14 0
-12 -13 0
-12 -14 0
-13 -14 0
5872 5873 5874 5875 5876 5877 5878 5879 5880 5881 5882 5883 5884 5885 5886 5887 5888 0
-5872 -5873 0
-5872 -5874 0
-5872 -5875 0
-5872 -5876 0
-5872 -5877 0
-5872 -5878 0
-5872 -5879 0
-5872 -5880 0
-5872 -5881 0
-5872 -5882 0
-5872 -5883 0
-5872 -5884 0
-5872 -5885 0
-5872 -5886 0
-5872 -5887 0
-5872 -5888 0
-5873 -5874 0
-5873 -5875 0
-5873 -5876 0
-5873 -5877 0
-5873 -5878 0
-5873 -5879 0
-5873 -5880 0
-5873 -5881 0
-5873 -5882 0
-5873 -5883 0
-5873 -5884 0
-5873 -5885 0
-5873 -5886 0
-5873 -5887 0
-5873 -5888 0
-5874 -5875 0
-5874 -5876 0
-5874 -5877 0
-5874 -5878 0
-5874 -5879 0
-5874 -5880 0
-5874 -5881 0
-5874 -5882 0
-5874 -5883 0
-5874 -5884 0
-5874 -5885 0
-5874 -5886 0
-5874 -5887 0
-5874 -5888 0
-5875 -5876 0
-5875 -5877 0
-5875 -5878 0
-5875 -5879 0
-5875 -5880 0
-5875 -5881 0
-5875 -5882 0
-5875 -5883 0
-5875 -5884 0
-5875 -5885 0
-5875 -5886 0
-5875 -5887 0
-5875 -5888 0
-5876 -5877 0
-5876 -5878 0
-5876 -5879 0
-5876 -5880 0
-5876 -5881 0
-5876 -5882 0
-5876 -5883 0
-5876 -5884 0
-5876 -5885 0
-5876 -5886 0
-5876 -5887 0
-5876 -5888 0
-5877 -5878 0
-5877 -5879 0
-5877 -5880 0
-5877 -5881 0
-5877 -5882 0
-5877 -5883 0
-5877 -5884 0
-5877 -5885 0
-5877 -5886 0
-5877 -5887 0
-5877 -5888 0
-5878 -5879 0
-5878 -5880 0
-5878 -5881 0
-5878 -5882 0
-5878 -5883 0
-5878 -5884 0
-5878 -5885 0
-5878 -5886 0
-5878 -5887 0
-5878 -5888 0
-5879 -5880 0
-5879 -5881 0
-5879 -5882 0
-5879 -5883 0
-5879 -5884 0
-5879 -5885 0
-5879 -5886 0
-5879 -5887 0
-5879 -5888 0
-5880 -5881 0
-5880 -5882 0
-5880 -5883 0
-5880 -5884 0
-5880 -5885 0
-5880 -5886 0
-5880 -5887 0
-5880 -5888 0
-5881 -5882 0
-5881 -5883 0
-5881 -5884 0
-5881 -5885 0
-5881 -5886 0
-5881 -5887 0
-5881 -5888 0
-5882 -5883 0
-5882 -5884 0
-5882 -5885 0
-5882 -5886 0
-5882 -5887 0
-5882 -5888 0
-5883 -5884 0
-5883 -5885 0
-5883 -5886 0
-5883 -5887 0
-5883 -5888 0
-5884 -5885 0
-5884 -5886 0
-5884 -5887 0
-5884 -5888 0
-5885 -5886 0
-5885 -5887 0
-5885 -5888 0
-5886 -5887 0
-5886 -5888 0
-5887 -5888 0
